
  22    0


   0  11 2 3 4 5 6 7 9 18 19 20 21 
   1   4 14 12 11 10 
   1   3 17 16 10 
   3   3 13 11 10 
   5   2 12 8 
   4   2 15 12 
   6   2 14 11 
   4   1 13 
   9   1 10 
   6   1 22
  10   1 22
   8   1 22
   9   1 22
   9   1 22
  10   1 22
  10   1 22
   6   1 22
   2   1 22
   7   1 22
   1   1 22
  10   1 22
   0   0 
